QPLIB_3533
LGQ
minimize
383 # number of variables
201 # number of constraints
0.0 # default value for linear coefficients in objective
25 # number of non-default linear coefficients in objective
1 7.5
2 13.05038314
3 13.05038314
4 13.05038314
5 13.05038314
6 10.68000468
7 10.68000468
8 10.68000468
9 10.68000468
10 7.5
11 7.5
12 7.5
13 7.5
14 18.11422093
15 18.11422093
16 18.11422093
17 18.11422093
18 18.11422093
19 18.11422093
20 18.11422093
21 18.11422093
22 13.34634782
23 13.34634782
24 13.34634782
25 13.34634782
0.0 # objective constant
86 # number of quadratic terms in all constraints
177 1651076122 1 -2.0
177 1651076122 1 2.0
178 1852403556 1 -1.1493915422
178 1852403556 1 -0.5746957712
178 1852403556 1 1.5325220564
178 1852403556 1 1.1493915422
178 1852403556 1 0.5746957712
178 1852403556 1 -1.5325220564
179 1768711012 50 1.1493915422
179 1768711012 50 -0.5746957712
179 1768711012 50 1.5325220564
179 1768711012 50 -1.1493915422
179 1768711012 50 0.5746957712
179 1768711012 50 -1.5325220564
180 775173731 1 -1.1493915422
180 775173731 1 0.5746957712
180 775173731 1 1.5325220564
180 775173731 1 1.1493915422
180 775173731 1 -0.5746957712
180 775173731 1 -1.5325220564
181 1663070068 1651076122 1.1493915422
181 1663070068 1651076122 0.5746957712
181 1663070068 1651076122 1.5325220564
181 1663070068 1651076122 -1.1493915422
181 1663070068 1651076122 -0.5746957712
181 1663070068 1651076122 -1.5325220564
182 1852403556 824206179 -0.7022468832
182 1852403556 824206179 1.8726583552
182 1852403556 824206179 0.7022468832
182 1852403556 824206179 -1.8726583552
183 1768711012 12321 0.7022468832
183 1768711012 12321 1.8726583552
183 1768711012 12321 -0.7022468832
183 1768711012 12321 -1.8726583552
184 775173731 1 -0.7022468832
184 775173731 1 1.8726583552
184 775173731 1 0.7022468832
184 775173731 1 -1.8726583552
185 1646292852 1 0.7022468832
185 1646292852 1 1.8726583552
185 1646292852 1 -0.7022468832
185 1646292852 1 -1.8726583552
186 824209008 1 2.0
186 824209008 1 -2.0
187 12321 50 2.0
187 12321 50 -2.0
188 1 1 -2.0
188 1 1 2.0
189 1651076122 7602177 2.0
189 1651076122 7602177 -2.0
190 1852403556 1 0.6900655594
190 1852403556 1 1.5181442306
190 1852403556 1 1.104104895
191 1768711012 50 0.6900655594
191 1768711012 50 -1.5181442306
191 1768711012 50 1.104104895
192 775173731 1 -0.6900655594
192 775173731 1 1.5181442306
192 775173731 1 1.104104895
193 1651076122 1646292852 -0.6900655594
193 1651076122 1646292852 -1.5181442306
193 1651076122 1646292852 1.104104895
194 1852403556 824209008 1.5181442306
194 1852403556 824209008 -0.6900655594
194 1852403556 824209008 1.104104895
195 1768711012 12321 -1.5181442306
195 1768711012 12321 -0.6900655594
195 1768711012 12321 1.104104895
196 775173731 1 1.5181442306
196 775173731 1 0.6900655594
196 775173731 1 1.104104895
197 1663070068 7602177 -1.5181442306
197 1663070068 7602177 0.6900655594
197 1663070068 7602177 1.104104895
198 824206179 1 0.9365858116
198 824206179 1 0.9365858116
198 824206179 1 1.4985372986
199 12321 50 0.9365858116
199 12321 50 -0.9365858116
199 12321 50 1.4985372986
200 1 1 -0.9365858116
200 1 1 -0.9365858116
200 1 1 1.4985372986
201 1651076122 193 -0.9365858116
201 1651076122 193 0.9365858116
201 1651076122 193 1.4985372986
1376 # number of linear terms in all constraints
1 1 -133.3333333
1 44 1.0
2 2 -76.62610282
2 45 1.0
3 3 -76.62610282
3 46 1.0
4 4 -76.62610282
4 47 1.0
5 5 -76.62610282
5 48 1.0
6 6 -93.63291776
6 49 1.0
7 7 -93.63291776
7 50 1.0
8 8 -93.63291776
8 51 1.0
9 9 -93.63291776
9 52 1.0
10 10 -133.3333333
10 53 1.0
11 11 -133.3333333
11 54 1.0
12 12 -133.3333333
12 55 1.0
13 13 -133.3333333
13 56 1.0
14 14 -55.20524475
14 57 1.0
15 15 -55.20524475
15 58 1.0
16 16 -55.20524475
16 59 1.0
17 17 -55.20524475
17 60 1.0
18 18 -55.20524475
18 61 1.0
19 19 -55.20524475
19 62 1.0
20 20 -55.20524475
20 63 1.0
21 21 -55.20524475
21 64 1.0
22 22 -74.92686493
22 65 1.0
23 23 -74.92686493
23 66 1.0
24 24 -74.92686493
24 67 1.0
25 25 -74.92686493
25 68 1.0
26 1 -40.0
26 69 1.0
27 2 -40.0
27 70 1.0
28 3 -40.0
28 71 1.0
29 4 -40.0
29 72 1.0
30 5 -40.0
30 73 1.0
31 6 -40.0
31 74 1.0
32 7 -40.0
32 75 1.0
33 8 -40.0
33 76 1.0
34 9 -40.0
34 77 1.0
35 10 -40.0
35 78 1.0
36 11 -40.0
36 79 1.0
37 12 -40.0
37 80 1.0
38 13 -40.0
38 81 1.0
39 14 -40.0
39 82 1.0
40 15 -40.0
40 83 1.0
41 16 -40.0
41 84 1.0
42 17 -40.0
42 85 1.0
43 18 -40.0
43 86 1.0
44 19 -40.0
44 87 1.0
45 20 -40.0
45 88 1.0
46 21 -40.0
46 89 1.0
47 22 -40.0
47 90 1.0
48 23 -40.0
48 91 1.0
49 24 -40.0
49 92 1.0
50 25 -40.0
50 93 1.0
51 1 -40.0
51 94 1.0
52 2 -40.0
52 95 1.0
53 3 -40.0
53 96 1.0
54 4 -40.0
54 97 1.0
55 5 -40.0
55 98 1.0
56 6 -40.0
56 99 1.0
57 7 -40.0
57 100 1.0
58 8 -40.0
58 101 1.0
59 9 -40.0
59 102 1.0
60 10 -40.0
60 103 1.0
61 11 -40.0
61 104 1.0
62 12 -40.0
62 105 1.0
63 13 -40.0
63 106 1.0
64 14 -40.0
64 107 1.0
65 15 -40.0
65 108 1.0
66 16 -40.0
66 109 1.0
67 17 -40.0
67 110 1.0
68 18 -40.0
68 111 1.0
69 19 -40.0
69 112 1.0
70 20 -40.0
70 113 1.0
71 21 -40.0
71 114 1.0
72 22 -40.0
72 115 1.0
73 23 -40.0
73 116 1.0
74 24 -40.0
74 117 1.0
75 25 -40.0
75 118 1.0
76 119 -1.0
76 120 -0.5746957711
76 121 -0.5746957711
77 120 -0.2873478856
77 121 0.2873478856
77 122 -0.3511234416
77 123 0.3511234416
78 120 0.7662610282
78 121 0.7662610282
78 122 0.9363291776
78 123 0.9363291776
79 119 1.0
79 124 0.5746957711
79 125 0.5746957711
80 124 -0.2873478856
80 125 0.2873478856
80 126 -0.3511234416
80 127 0.3511234416
81 124 0.7662610282
81 125 0.7662610282
81 126 0.9363291776
81 127 0.9363291776
82 124 -0.5746957711
82 128 -1.0
82 129 0.3450327797
82 130 -0.7590721153
82 131 0.4682929058
83 122 0.3511234416
83 124 0.2873478856
83 129 0.7590721153
83 130 -0.3450327797
83 131 -0.4682929058
83 132 1.0
84 122 -0.9363291776
84 124 -0.7662610282
84 129 0.5520524475
84 130 0.5520524475
84 131 0.7492686493
85 120 0.5746957711
85 128 1.0
85 133 -0.3450327797
85 134 0.7590721153
85 135 -0.4682929058
86 120 0.2873478856
86 126 0.3511234416
86 133 0.7590721153
86 134 -0.3450327797
86 135 -0.4682929058
86 136 1.0
87 120 -0.7662610282
87 126 -0.9363291776
87 133 0.5520524475
87 134 0.5520524475
87 135 0.7492686493
88 121 0.5746957711
88 137 1.0
88 138 -0.3450327797
88 139 0.7590721153
88 140 -0.4682929058
89 121 -0.2873478856
89 127 -0.3511234416
89 136 -1.0
89 138 -0.7590721153
89 139 0.3450327797
89 140 0.4682929058
90 121 -0.7662610282
90 127 -0.9363291776
90 138 0.5520524475
90 139 0.5520524475
90 140 0.7492686493
91 125 -0.5746957711
91 137 -1.0
91 141 0.3450327797
91 142 -0.7590721153
91 143 0.4682929058
92 123 -0.3511234416
92 125 -0.2873478856
92 132 -1.0
92 141 -0.7590721153
92 142 0.3450327797
92 143 0.4682929058
93 123 -0.9363291776
93 125 -0.7662610282
93 141 0.5520524475
93 142 0.5520524475
93 143 0.7492686493
94 69 -1.0
94 119 1.0
95 94 -1.0
95 119 -1.0
96 70 -1.0
96 120 1.0
97 95 -1.0
97 120 -1.0
98 71 -1.0
98 124 1.0
99 96 -1.0
99 124 -1.0
100 72 -1.0
100 121 1.0
101 97 -1.0
101 121 -1.0
102 73 -1.0
102 125 1.0
103 98 -1.0
103 125 -1.0
104 74 -1.0
104 126 1.0
105 99 -1.0
105 126 -1.0
106 75 -1.0
106 127 1.0
107 100 -1.0
107 127 -1.0
108 76 -1.0
108 122 1.0
109 101 -1.0
109 122 -1.0
110 77 -1.0
110 123 1.0
111 102 -1.0
111 123 -1.0
112 78 -1.0
112 132 1.0
113 103 -1.0
113 132 -1.0
114 79 -1.0
114 136 1.0
115 104 -1.0
115 136 -1.0
116 80 -1.0
116 128 1.0
117 105 -1.0
117 128 -1.0
118 81 -1.0
118 137 1.0
119 106 -1.0
119 137 -1.0
120 82 -1.0
120 129 1.0
121 107 -1.0
121 129 -1.0
122 83 -1.0
122 141 1.0
123 108 -1.0
123 141 -1.0
124 84 -1.0
124 133 1.0
125 109 -1.0
125 133 -1.0
126 85 -1.0
126 138 1.0
127 110 -1.0
127 138 -1.0
128 86 -1.0
128 134 1.0
129 111 -1.0
129 134 -1.0
130 87 -1.0
130 130 1.0
131 112 -1.0
131 130 -1.0
132 88 -1.0
132 139 1.0
133 113 -1.0
133 139 -1.0
134 89 -1.0
134 142 1.0
135 114 -1.0
135 142 -1.0
136 90 -1.0
136 143 1.0
137 115 -1.0
137 143 -1.0
138 91 -1.0
138 131 1.0
139 116 -1.0
139 131 -1.0
140 92 -1.0
140 135 1.0
141 117 -1.0
141 135 -1.0
142 93 -1.0
142 140 1.0
143 118 -1.0
143 140 -1.0
144 1 -1.0
144 144 0.1
144 145 0.2
144 146 0.3
144 147 0.4
144 148 0.5
144 149 0.6
144 150 0.7
144 151 0.8
144 152 0.9
144 153 1.0
144 154 1.1
144 155 1.2
144 156 1.3
144 157 1.4
144 158 1.5
144 159 1.6
144 160 1.7
144 161 1.8
144 162 1.9
144 163 2.0
144 164 2.1
144 165 2.2
144 166 2.3
144 167 2.4
144 168 2.5
144 169 2.6
144 170 2.8
144 171 3.0
144 172 3.2
144 173 3.4
145 2 -1.0
145 174 0.1
145 175 0.2
145 176 0.3
145 177 0.4
145 178 0.5
145 179 0.6
145 180 0.7
145 181 0.8
145 182 0.9
145 183 1.0
145 184 1.1
145 185 1.2
145 186 1.3
145 187 1.4
145 188 1.5
145 189 1.6
145 190 1.7
145 191 1.8
145 192 1.9
145 193 2.0
145 194 2.1
145 195 2.2
145 196 2.3
145 197 2.4
145 198 2.5
145 199 2.6
145 200 2.8
145 201 3.0
145 202 3.2
145 203 3.4
146 3 -1.0
146 174 0.1
146 175 0.2
146 176 0.3
146 177 0.4
146 178 0.5
146 179 0.6
146 180 0.7
146 181 0.8
146 182 0.9
146 183 1.0
146 184 1.1
146 185 1.2
146 186 1.3
146 187 1.4
146 188 1.5
146 189 1.6
146 190 1.7
146 191 1.8
146 192 1.9
146 193 2.0
146 194 2.1
146 195 2.2
146 196 2.3
146 197 2.4
146 198 2.5
146 199 2.6
146 200 2.8
146 201 3.0
146 202 3.2
146 203 3.4
147 4 -1.0
147 174 0.1
147 175 0.2
147 176 0.3
147 177 0.4
147 178 0.5
147 179 0.6
147 180 0.7
147 181 0.8
147 182 0.9
147 183 1.0
147 184 1.1
147 185 1.2
147 186 1.3
147 187 1.4
147 188 1.5
147 189 1.6
147 190 1.7
147 191 1.8
147 192 1.9
147 193 2.0
147 194 2.1
147 195 2.2
147 196 2.3
147 197 2.4
147 198 2.5
147 199 2.6
147 200 2.8
147 201 3.0
147 202 3.2
147 203 3.4
148 5 -1.0
148 174 0.1
148 175 0.2
148 176 0.3
148 177 0.4
148 178 0.5
148 179 0.6
148 180 0.7
148 181 0.8
148 182 0.9
148 183 1.0
148 184 1.1
148 185 1.2
148 186 1.3
148 187 1.4
148 188 1.5
148 189 1.6
148 190 1.7
148 191 1.8
148 192 1.9
148 193 2.0
148 194 2.1
148 195 2.2
148 196 2.3
148 197 2.4
148 198 2.5
148 199 2.6
148 200 2.8
148 201 3.0
148 202 3.2
148 203 3.4
149 6 -1.0
149 204 0.1
149 205 0.2
149 206 0.3
149 207 0.4
149 208 0.5
149 209 0.6
149 210 0.7
149 211 0.8
149 212 0.9
149 213 1.0
149 214 1.1
149 215 1.2
149 216 1.3
149 217 1.4
149 218 1.5
149 219 1.6
149 220 1.7
149 221 1.8
149 222 1.9
149 223 2.0
149 224 2.1
149 225 2.2
149 226 2.3
149 227 2.4
149 228 2.5
149 229 2.6
149 230 2.8
149 231 3.0
149 232 3.2
149 233 3.4
150 7 -1.0
150 204 0.1
150 205 0.2
150 206 0.3
150 207 0.4
150 208 0.5
150 209 0.6
150 210 0.7
150 211 0.8
150 212 0.9
150 213 1.0
150 214 1.1
150 215 1.2
150 216 1.3
150 217 1.4
150 218 1.5
150 219 1.6
150 220 1.7
150 221 1.8
150 222 1.9
150 223 2.0
150 224 2.1
150 225 2.2
150 226 2.3
150 227 2.4
150 228 2.5
150 229 2.6
150 230 2.8
150 231 3.0
150 232 3.2
150 233 3.4
151 8 -1.0
151 204 0.1
151 205 0.2
151 206 0.3
151 207 0.4
151 208 0.5
151 209 0.6
151 210 0.7
151 211 0.8
151 212 0.9
151 213 1.0
151 214 1.1
151 215 1.2
151 216 1.3
151 217 1.4
151 218 1.5
151 219 1.6
151 220 1.7
151 221 1.8
151 222 1.9
151 223 2.0
151 224 2.1
151 225 2.2
151 226 2.3
151 227 2.4
151 228 2.5
151 229 2.6
151 230 2.8
151 231 3.0
151 232 3.2
151 233 3.4
152 9 -1.0
152 204 0.1
152 205 0.2
152 206 0.3
152 207 0.4
152 208 0.5
152 209 0.6
152 210 0.7
152 211 0.8
152 212 0.9
152 213 1.0
152 214 1.1
152 215 1.2
152 216 1.3
152 217 1.4
152 218 1.5
152 219 1.6
152 220 1.7
152 221 1.8
152 222 1.9
152 223 2.0
152 224 2.1
152 225 2.2
152 226 2.3
152 227 2.4
152 228 2.5
152 229 2.6
152 230 2.8
152 231 3.0
152 232 3.2
152 233 3.4
153 10 -1.0
153 234 0.1
153 235 0.2
153 236 0.3
153 237 0.4
153 238 0.5
153 239 0.6
153 240 0.7
153 241 0.8
153 242 0.9
153 243 1.0
153 244 1.1
153 245 1.2
153 246 1.3
153 247 1.4
153 248 1.5
153 249 1.6
153 250 1.7
153 251 1.8
153 252 1.9
153 253 2.0
153 254 2.1
153 255 2.2
153 256 2.3
153 257 2.4
153 258 2.5
153 259 2.6
153 260 2.8
153 261 3.0
153 262 3.2
153 263 3.4
154 11 -1.0
154 234 0.1
154 235 0.2
154 236 0.3
154 237 0.4
154 238 0.5
154 239 0.6
154 240 0.7
154 241 0.8
154 242 0.9
154 243 1.0
154 244 1.1
154 245 1.2
154 246 1.3
154 247 1.4
154 248 1.5
154 249 1.6
154 250 1.7
154 251 1.8
154 252 1.9
154 253 2.0
154 254 2.1
154 255 2.2
154 256 2.3
154 257 2.4
154 258 2.5
154 259 2.6
154 260 2.8
154 261 3.0
154 262 3.2
154 263 3.4
155 12 -1.0
155 264 0.1
155 265 0.2
155 266 0.3
155 267 0.4
155 268 0.5
155 269 0.6
155 270 0.7
155 271 0.8
155 272 0.9
155 273 1.0
155 274 1.1
155 275 1.2
155 276 1.3
155 277 1.4
155 278 1.5
155 279 1.6
155 280 1.7
155 281 1.8
155 282 1.9
155 283 2.0
155 284 2.1
155 285 2.2
155 286 2.3
155 287 2.4
155 288 2.5
155 289 2.6
155 290 2.8
155 291 3.0
155 292 3.2
155 293 3.4
156 13 -1.0
156 264 0.1
156 265 0.2
156 266 0.3
156 267 0.4
156 268 0.5
156 269 0.6
156 270 0.7
156 271 0.8
156 272 0.9
156 273 1.0
156 274 1.1
156 275 1.2
156 276 1.3
156 277 1.4
156 278 1.5
156 279 1.6
156 280 1.7
156 281 1.8
156 282 1.9
156 283 2.0
156 284 2.1
156 285 2.2
156 286 2.3
156 287 2.4
156 288 2.5
156 289 2.6
156 290 2.8
156 291 3.0
156 292 3.2
156 293 3.4
157 14 -1.0
157 294 0.1
157 295 0.2
157 296 0.3
157 297 0.4
157 298 0.5
157 299 0.6
157 300 0.7
157 301 0.8
157 302 0.9
157 303 1.0
157 304 1.1
157 305 1.2
157 306 1.3
157 307 1.4
157 308 1.5
157 309 1.6
157 310 1.7
157 311 1.8
157 312 1.9
157 313 2.0
157 314 2.1
157 315 2.2
157 316 2.3
157 317 2.4
157 318 2.5
157 319 2.6
157 320 2.8
157 321 3.0
157 322 3.2
157 323 3.4
158 15 -1.0
158 294 0.1
158 295 0.2
158 296 0.3
158 297 0.4
158 298 0.5
158 299 0.6
158 300 0.7
158 301 0.8
158 302 0.9
158 303 1.0
158 304 1.1
158 305 1.2
158 306 1.3
158 307 1.4
158 308 1.5
158 309 1.6
158 310 1.7
158 311 1.8
158 312 1.9
158 313 2.0
158 314 2.1
158 315 2.2
158 316 2.3
158 317 2.4
158 318 2.5
158 319 2.6
158 320 2.8
158 321 3.0
158 322 3.2
158 323 3.4
159 16 -1.0
159 294 0.1
159 295 0.2
159 296 0.3
159 297 0.4
159 298 0.5
159 299 0.6
159 300 0.7
159 301 0.8
159 302 0.9
159 303 1.0
159 304 1.1
159 305 1.2
159 306 1.3
159 307 1.4
159 308 1.5
159 309 1.6
159 310 1.7
159 311 1.8
159 312 1.9
159 313 2.0
159 314 2.1
159 315 2.2
159 316 2.3
159 317 2.4
159 318 2.5
159 319 2.6
159 320 2.8
159 321 3.0
159 322 3.2
159 323 3.4
160 17 -1.0
160 294 0.1
160 295 0.2
160 296 0.3
160 297 0.4
160 298 0.5
160 299 0.6
160 300 0.7
160 301 0.8
160 302 0.9
160 303 1.0
160 304 1.1
160 305 1.2
160 306 1.3
160 307 1.4
160 308 1.5
160 309 1.6
160 310 1.7
160 311 1.8
160 312 1.9
160 313 2.0
160 314 2.1
160 315 2.2
160 316 2.3
160 317 2.4
160 318 2.5
160 319 2.6
160 320 2.8
160 321 3.0
160 322 3.2
160 323 3.4
161 18 -1.0
161 324 0.1
161 325 0.2
161 326 0.3
161 327 0.4
161 328 0.5
161 329 0.6
161 330 0.7
161 331 0.8
161 332 0.9
161 333 1.0
161 334 1.1
161 335 1.2
161 336 1.3
161 337 1.4
161 338 1.5
161 339 1.6
161 340 1.7
161 341 1.8
161 342 1.9
161 343 2.0
161 344 2.1
161 345 2.2
161 346 2.3
161 347 2.4
161 348 2.5
161 349 2.6
161 350 2.8
161 351 3.0
161 352 3.2
161 353 3.4
162 19 -1.0
162 324 0.1
162 325 0.2
162 326 0.3
162 327 0.4
162 328 0.5
162 329 0.6
162 330 0.7
162 331 0.8
162 332 0.9
162 333 1.0
162 334 1.1
162 335 1.2
162 336 1.3
162 337 1.4
162 338 1.5
162 339 1.6
162 340 1.7
162 341 1.8
162 342 1.9
162 343 2.0
162 344 2.1
162 345 2.2
162 346 2.3
162 347 2.4
162 348 2.5
162 349 2.6
162 350 2.8
162 351 3.0
162 352 3.2
162 353 3.4
163 20 -1.0
163 324 0.1
163 325 0.2
163 326 0.3
163 327 0.4
163 328 0.5
163 329 0.6
163 330 0.7
163 331 0.8
163 332 0.9
163 333 1.0
163 334 1.1
163 335 1.2
163 336 1.3
163 337 1.4
163 338 1.5
163 339 1.6
163 340 1.7
163 341 1.8
163 342 1.9
163 343 2.0
163 344 2.1
163 345 2.2
163 346 2.3
163 347 2.4
163 348 2.5
163 349 2.6
163 350 2.8
163 351 3.0
163 352 3.2
163 353 3.4
164 21 -1.0
164 324 0.1
164 325 0.2
164 326 0.3
164 327 0.4
164 328 0.5
164 329 0.6
164 330 0.7
164 331 0.8
164 332 0.9
164 333 1.0
164 334 1.1
164 335 1.2
164 336 1.3
164 337 1.4
164 338 1.5
164 339 1.6
164 340 1.7
164 341 1.8
164 342 1.9
164 343 2.0
164 344 2.1
164 345 2.2
164 346 2.3
164 347 2.4
164 348 2.5
164 349 2.6
164 350 2.8
164 351 3.0
164 352 3.2
164 353 3.4
165 22 -1.0
165 354 0.1
165 355 0.2
165 356 0.3
165 357 0.4
165 358 0.5
165 359 0.6
165 360 0.7
165 361 0.8
165 362 0.9
165 363 1.0
165 364 1.1
165 365 1.2
165 366 1.3
165 367 1.4
165 368 1.5
165 369 1.6
165 370 1.7
165 371 1.8
165 372 1.9
165 373 2.0
165 374 2.1
165 375 2.2
165 376 2.3
165 377 2.4
165 378 2.5
165 379 2.6
165 380 2.8
165 381 3.0
165 382 3.2
165 383 3.4
166 23 -1.0
166 354 0.1
166 355 0.2
166 356 0.3
166 357 0.4
166 358 0.5
166 359 0.6
166 360 0.7
166 361 0.8
166 362 0.9
166 363 1.0
166 364 1.1
166 365 1.2
166 366 1.3
166 367 1.4
166 368 1.5
166 369 1.6
166 370 1.7
166 371 1.8
166 372 1.9
166 373 2.0
166 374 2.1
166 375 2.2
166 376 2.3
166 377 2.4
166 378 2.5
166 379 2.6
166 380 2.8
166 381 3.0
166 382 3.2
166 383 3.4
167 24 -1.0
167 354 0.1
167 355 0.2
167 356 0.3
167 357 0.4
167 358 0.5
167 359 0.6
167 360 0.7
167 361 0.8
167 362 0.9
167 363 1.0
167 364 1.1
167 365 1.2
167 366 1.3
167 367 1.4
167 368 1.5
167 369 1.6
167 370 1.7
167 371 1.8
167 372 1.9
167 373 2.0
167 374 2.1
167 375 2.2
167 376 2.3
167 377 2.4
167 378 2.5
167 379 2.6
167 380 2.8
167 381 3.0
167 382 3.2
167 383 3.4
168 25 -1.0
168 354 0.1
168 355 0.2
168 356 0.3
168 357 0.4
168 358 0.5
168 359 0.6
168 360 0.7
168 361 0.8
168 362 0.9
168 363 1.0
168 364 1.1
168 365 1.2
168 366 1.3
168 367 1.4
168 368 1.5
168 369 1.6
168 370 1.7
168 371 1.8
168 372 1.9
168 373 2.0
168 374 2.1
168 375 2.2
168 376 2.3
168 377 2.4
168 378 2.5
168 379 2.6
168 380 2.8
168 381 3.0
168 382 3.2
168 383 3.4
169 144 1.0
169 145 1.0
169 146 1.0
169 147 1.0
169 148 1.0
169 149 1.0
169 150 1.0
169 151 1.0
169 152 1.0
169 153 1.0
169 154 1.0
169 155 1.0
169 156 1.0
169 157 1.0
169 158 1.0
169 159 1.0
169 160 1.0
169 161 1.0
169 162 1.0
169 163 1.0
169 164 1.0
169 165 1.0
169 166 1.0
169 167 1.0
169 168 1.0
169 169 1.0
169 170 1.0
169 171 1.0
169 172 1.0
169 173 1.0
170 174 1.0
170 175 1.0
170 176 1.0
170 177 1.0
170 178 1.0
170 179 1.0
170 180 1.0
170 181 1.0
170 182 1.0
170 183 1.0
170 184 1.0
170 185 1.0
170 186 1.0
170 187 1.0
170 188 1.0
170 189 1.0
170 190 1.0
170 191 1.0
170 192 1.0
170 193 1.0
170 194 1.0
170 195 1.0
170 196 1.0
170 197 1.0
170 198 1.0
170 199 1.0
170 200 1.0
170 201 1.0
170 202 1.0
170 203 1.0
171 204 1.0
171 205 1.0
171 206 1.0
171 207 1.0
171 208 1.0
171 209 1.0
171 210 1.0
171 211 1.0
171 212 1.0
171 213 1.0
171 214 1.0
171 215 1.0
171 216 1.0
171 217 1.0
171 218 1.0
171 219 1.0
171 220 1.0
171 221 1.0
171 222 1.0
171 223 1.0
171 224 1.0
171 225 1.0
171 226 1.0
171 227 1.0
171 228 1.0
171 229 1.0
171 230 1.0
171 231 1.0
171 232 1.0
171 233 1.0
172 234 1.0
172 235 1.0
172 236 1.0
172 237 1.0
172 238 1.0
172 239 1.0
172 240 1.0
172 241 1.0
172 242 1.0
172 243 1.0
172 244 1.0
172 245 1.0
172 246 1.0
172 247 1.0
172 248 1.0
172 249 1.0
172 250 1.0
172 251 1.0
172 252 1.0
172 253 1.0
172 254 1.0
172 255 1.0
172 256 1.0
172 257 1.0
172 258 1.0
172 259 1.0
172 260 1.0
172 261 1.0
172 262 1.0
172 263 1.0
173 264 1.0
173 265 1.0
173 266 1.0
173 267 1.0
173 268 1.0
173 269 1.0
173 270 1.0
173 271 1.0
173 272 1.0
173 273 1.0
173 274 1.0
173 275 1.0
173 276 1.0
173 277 1.0
173 278 1.0
173 279 1.0
173 280 1.0
173 281 1.0
173 282 1.0
173 283 1.0
173 284 1.0
173 285 1.0
173 286 1.0
173 287 1.0
173 288 1.0
173 289 1.0
173 290 1.0
173 291 1.0
173 292 1.0
173 293 1.0
174 294 1.0
174 295 1.0
174 296 1.0
174 297 1.0
174 298 1.0
174 299 1.0
174 300 1.0
174 301 1.0
174 302 1.0
174 303 1.0
174 304 1.0
174 305 1.0
174 306 1.0
174 307 1.0
174 308 1.0
174 309 1.0
174 310 1.0
174 311 1.0
174 312 1.0
174 313 1.0
174 314 1.0
174 315 1.0
174 316 1.0
174 317 1.0
174 318 1.0
174 319 1.0
174 320 1.0
174 321 1.0
174 322 1.0
174 323 1.0
175 324 1.0
175 325 1.0
175 326 1.0
175 327 1.0
175 328 1.0
175 329 1.0
175 330 1.0
175 331 1.0
175 332 1.0
175 333 1.0
175 334 1.0
175 335 1.0
175 336 1.0
175 337 1.0
175 338 1.0
175 339 1.0
175 340 1.0
175 341 1.0
175 342 1.0
175 343 1.0
175 344 1.0
175 345 1.0
175 346 1.0
175 347 1.0
175 348 1.0
175 349 1.0
175 350 1.0
175 351 1.0
175 352 1.0
175 353 1.0
176 354 1.0
176 355 1.0
176 356 1.0
176 357 1.0
176 358 1.0
176 359 1.0
176 360 1.0
176 361 1.0
176 362 1.0
176 363 1.0
176 364 1.0
176 365 1.0
176 366 1.0
176 367 1.0
176 368 1.0
176 369 1.0
176 370 1.0
176 371 1.0
176 372 1.0
176 373 1.0
176 374 1.0
176 375 1.0
176 376 1.0
176 377 1.0
176 378 1.0
176 379 1.0
176 380 1.0
176 381 1.0
176 382 1.0
176 383 1.0
177 119 -1.0
178 120 -1.0
179 124 -1.0
180 121 -1.0
181 125 -1.0
182 126 -1.0
183 127 -1.0
184 122 -1.0
185 123 -1.0
186 132 -1.0
187 136 -1.0
188 128 -1.0
189 137 -1.0
190 129 -1.0
191 141 -1.0
192 133 -1.0
193 138 -1.0
194 134 -1.0
195 130 -1.0
196 139 -1.0
197 142 -1.0
198 143 -1.0
199 131 -1.0
200 135 -1.0
201 140 -1.0
1.79769313486232E+308 # value for infinity
0.0 # default left-hand-side value
65 # number of non-default left-hand-sides
76 1.0
77 10.0
78 -10.0
80 10.0
81 -10.0
82 0.5
91 0.6
94 -1.79769313486232E+308
95 -1.79769313486232E+308
96 -1.79769313486232E+308
97 -1.79769313486232E+308
98 -1.79769313486232E+308
99 -1.79769313486232E+308
100 -1.79769313486232E+308
101 -1.79769313486232E+308
102 -1.79769313486232E+308
103 -1.79769313486232E+308
104 -1.79769313486232E+308
105 -1.79769313486232E+308
106 -1.79769313486232E+308
107 -1.79769313486232E+308
108 -1.79769313486232E+308
109 -1.79769313486232E+308
110 -1.79769313486232E+308
111 -1.79769313486232E+308
112 -1.79769313486232E+308
113 -1.79769313486232E+308
114 -1.79769313486232E+308
115 -1.79769313486232E+308
116 -1.79769313486232E+308
117 -1.79769313486232E+308
118 -1.79769313486232E+308
119 -1.79769313486232E+308
120 -1.79769313486232E+308
121 -1.79769313486232E+308
122 -1.79769313486232E+308
123 -1.79769313486232E+308
124 -1.79769313486232E+308
125 -1.79769313486232E+308
126 -1.79769313486232E+308
127 -1.79769313486232E+308
128 -1.79769313486232E+308
129 -1.79769313486232E+308
130 -1.79769313486232E+308
131 -1.79769313486232E+308
132 -1.79769313486232E+308
133 -1.79769313486232E+308
134 -1.79769313486232E+308
135 -1.79769313486232E+308
136 -1.79769313486232E+308
137 -1.79769313486232E+308
138 -1.79769313486232E+308
139 -1.79769313486232E+308
140 -1.79769313486232E+308
141 -1.79769313486232E+308
142 -1.79769313486232E+308
143 -1.79769313486232E+308
169 1.0
170 1.0
171 1.0
172 1.0
173 1.0
174 1.0
175 1.0
176 1.0
0.0 # default right-hand-side value
15 # number of non-default right-hand-sides
76 1.0
77 10.0
78 -10.0
80 10.0
81 -10.0
82 0.5
91 0.6
169 1.0
170 1.0
171 1.0
172 1.0
173 1.0
174 1.0
175 1.0
176 1.0
0.0 # default variable lower bound value
143 # number of non-default variable lower bounds
1 0.1
2 0.1
3 0.1
4 0.1
5 0.1
6 0.1
7 0.1
8 0.1
9 0.1
10 0.1
11 0.1
12 0.1
13 0.1
14 0.1
15 0.1
16 0.1
17 0.1
18 0.1
19 0.1
20 0.1
21 0.1
22 0.1
23 0.1
24 0.1
25 0.1
26 -0.35
27 -0.35
28 -1.79769313486232E+308
29 -0.35
30 -0.35
31 -1.79769313486232E+308
32 -1.79769313486232E+308
33 -1.79769313486232E+308
34 -1.79769313486232E+308
35 -1.79769313486232E+308
36 -1.79769313486232E+308
37 -1.79769313486232E+308
38 -1.79769313486232E+308
39 -1.79769313486232E+308
40 -1.79769313486232E+308
41 -1.79769313486232E+308
42 -1.79769313486232E+308
43 -1.79769313486232E+308
44 -1.79769313486232E+308
45 -1.79769313486232E+308
46 -1.79769313486232E+308
47 -1.79769313486232E+308
48 -1.79769313486232E+308
49 -1.79769313486232E+308
50 -1.79769313486232E+308
51 -1.79769313486232E+308
52 -1.79769313486232E+308
53 -1.79769313486232E+308
54 -1.79769313486232E+308
55 -1.79769313486232E+308
56 -1.79769313486232E+308
57 -1.79769313486232E+308
58 -1.79769313486232E+308
59 -1.79769313486232E+308
60 -1.79769313486232E+308
61 -1.79769313486232E+308
62 -1.79769313486232E+308
63 -1.79769313486232E+308
64 -1.79769313486232E+308
65 -1.79769313486232E+308
66 -1.79769313486232E+308
67 -1.79769313486232E+308
68 -1.79769313486232E+308
69 -1.79769313486232E+308
70 -1.79769313486232E+308
71 -1.79769313486232E+308
72 -1.79769313486232E+308
73 -1.79769313486232E+308
74 -1.79769313486232E+308
75 -1.79769313486232E+308
76 -1.79769313486232E+308
77 -1.79769313486232E+308
78 -1.79769313486232E+308
79 -1.79769313486232E+308
80 -1.79769313486232E+308
81 -1.79769313486232E+308
82 -1.79769313486232E+308
83 -1.79769313486232E+308
84 -1.79769313486232E+308
85 -1.79769313486232E+308
86 -1.79769313486232E+308
87 -1.79769313486232E+308
88 -1.79769313486232E+308
89 -1.79769313486232E+308
90 -1.79769313486232E+308
91 -1.79769313486232E+308
92 -1.79769313486232E+308
93 -1.79769313486232E+308
94 -1.79769313486232E+308
95 -1.79769313486232E+308
96 -1.79769313486232E+308
97 -1.79769313486232E+308
98 -1.79769313486232E+308
99 -1.79769313486232E+308
100 -1.79769313486232E+308
101 -1.79769313486232E+308
102 -1.79769313486232E+308
103 -1.79769313486232E+308
104 -1.79769313486232E+308
105 -1.79769313486232E+308
106 -1.79769313486232E+308
107 -1.79769313486232E+308
108 -1.79769313486232E+308
109 -1.79769313486232E+308
110 -1.79769313486232E+308
111 -1.79769313486232E+308
112 -1.79769313486232E+308
113 -1.79769313486232E+308
114 -1.79769313486232E+308
115 -1.79769313486232E+308
116 -1.79769313486232E+308
117 -1.79769313486232E+308
118 -1.79769313486232E+308
119 -1.79769313486232E+308
120 -1.79769313486232E+308
121 -1.79769313486232E+308
122 -1.79769313486232E+308
123 -1.79769313486232E+308
124 -1.79769313486232E+308
125 -1.79769313486232E+308
126 -1.79769313486232E+308
127 -1.79769313486232E+308
128 -1.79769313486232E+308
129 -1.79769313486232E+308
130 -1.79769313486232E+308
131 -1.79769313486232E+308
132 -1.79769313486232E+308
133 -1.79769313486232E+308
134 -1.79769313486232E+308
135 -1.79769313486232E+308
136 -1.79769313486232E+308
137 -1.79769313486232E+308
138 -1.79769313486232E+308
139 -1.79769313486232E+308
140 -1.79769313486232E+308
141 -1.79769313486232E+308
142 -1.79769313486232E+308
143 -1.79769313486232E+308
1.0 # default variable upper bound value
143 # number of non-default variable upper bounds
1 3.4
2 3.4
3 3.4
4 3.4
5 3.4
6 3.4
7 3.4
8 3.4
9 3.4
10 3.4
11 3.4
12 3.4
13 3.4
14 3.4
15 3.4
16 3.4
17 3.4
18 3.4
19 3.4
20 3.4
21 3.4
22 3.4
23 3.4
24 3.4
25 3.4
26 0.35
27 0.35
28 1.79769313486232E+308
29 0.35
30 0.35
31 1.79769313486232E+308
32 1.79769313486232E+308
33 1.79769313486232E+308
34 1.79769313486232E+308
35 1.79769313486232E+308
36 1.79769313486232E+308
37 1.79769313486232E+308
38 1.79769313486232E+308
39 1.79769313486232E+308
40 1.79769313486232E+308
41 1.79769313486232E+308
42 1.79769313486232E+308
43 1.79769313486232E+308
44 1.79769313486232E+308
45 1.79769313486232E+308
46 1.79769313486232E+308
47 1.79769313486232E+308
48 1.79769313486232E+308
49 1.79769313486232E+308
50 1.79769313486232E+308
51 1.79769313486232E+308
52 1.79769313486232E+308
53 1.79769313486232E+308
54 1.79769313486232E+308
55 1.79769313486232E+308
56 1.79769313486232E+308
57 1.79769313486232E+308
58 1.79769313486232E+308
59 1.79769313486232E+308
60 1.79769313486232E+308
61 1.79769313486232E+308
62 1.79769313486232E+308
63 1.79769313486232E+308
64 1.79769313486232E+308
65 1.79769313486232E+308
66 1.79769313486232E+308
67 1.79769313486232E+308
68 1.79769313486232E+308
69 1.79769313486232E+308
70 1.79769313486232E+308
71 1.79769313486232E+308
72 1.79769313486232E+308
73 1.79769313486232E+308
74 1.79769313486232E+308
75 1.79769313486232E+308
76 1.79769313486232E+308
77 1.79769313486232E+308
78 1.79769313486232E+308
79 1.79769313486232E+308
80 1.79769313486232E+308
81 1.79769313486232E+308
82 1.79769313486232E+308
83 1.79769313486232E+308
84 1.79769313486232E+308
85 1.79769313486232E+308
86 1.79769313486232E+308
87 1.79769313486232E+308
88 1.79769313486232E+308
89 1.79769313486232E+308
90 1.79769313486232E+308
91 1.79769313486232E+308
92 1.79769313486232E+308
93 1.79769313486232E+308
94 1.79769313486232E+308
95 1.79769313486232E+308
96 1.79769313486232E+308
97 1.79769313486232E+308
98 1.79769313486232E+308
99 1.79769313486232E+308
100 1.79769313486232E+308
101 1.79769313486232E+308
102 1.79769313486232E+308
103 1.79769313486232E+308
104 1.79769313486232E+308
105 1.79769313486232E+308
106 1.79769313486232E+308
107 1.79769313486232E+308
108 1.79769313486232E+308
109 1.79769313486232E+308
110 1.79769313486232E+308
111 1.79769313486232E+308
112 1.79769313486232E+308
113 1.79769313486232E+308
114 1.79769313486232E+308
115 1.79769313486232E+308
116 1.79769313486232E+308
117 1.79769313486232E+308
118 1.79769313486232E+308
119 1.79769313486232E+308
120 1.79769313486232E+308
121 1.79769313486232E+308
122 1.79769313486232E+308
123 1.79769313486232E+308
124 1.79769313486232E+308
125 1.79769313486232E+308
126 1.79769313486232E+308
127 1.79769313486232E+308
128 1.79769313486232E+308
129 1.79769313486232E+308
130 1.79769313486232E+308
131 1.79769313486232E+308
132 1.79769313486232E+308
133 1.79769313486232E+308
134 1.79769313486232E+308
135 1.79769313486232E+308
136 1.79769313486232E+308
137 1.79769313486232E+308
138 1.79769313486232E+308
139 1.79769313486232E+308
140 1.79769313486232E+308
141 1.79769313486232E+308
142 1.79769313486232E+308
143 1.79769313486232E+308
1 # default variable type
143 # number of non-default variable types
1 1
2 1
3 1
4 1
5 1
6 1
7 1
8 1
9 1
10 1
11 1
12 1
13 1
14 1
15 1
16 1
17 1
18 1
19 1
20 1
21 1
22 1
23 1
24 1
25 1
26 1
27 1
28 1
29 1
30 1
31 1
32 1
33 1
34 1
35 1
36 1
37 1
38 1
39 1
40 1
41 1
42 1
43 1
44 1
45 1
46 1
47 1
48 1
49 1
50 1
51 1
52 1
53 1
54 1
55 1
56 1
57 1
58 1
59 1
60 1
61 1
62 1
63 1
64 1
65 1
66 1
67 1
68 1
69 1
70 1
71 1
72 1
73 1
74 1
75 1
76 1
77 1
78 1
79 1
80 1
81 1
82 1
83 1
84 1
85 1
86 1
87 1
88 1
89 1
90 1
91 1
92 1
93 1
94 1
95 1
96 1
97 1
98 1
99 1
100 1
101 1
102 1
103 1
104 1
105 1
106 1
107 1
108 1
109 1
110 1
111 1
112 1
113 1
114 1
115 1
116 1
117 1
118 1
119 1
120 1
121 1
122 1
123 1
124 1
125 1
126 1
127 1
128 1
129 1
130 1
131 1
132 1
133 1
134 1
135 1
136 1
137 1
138 1
139 1
140 1
141 1
142 1
143 1
0.0 # default variable primal value in starting point
25 # number of non-default variable primal values in starting point
1 0.1
2 0.1
3 0.1
4 0.1
5 0.1
6 0.1
7 0.1
8 0.1
9 0.1
10 0.1
11 0.1
12 0.1
13 0.1
14 0.1
15 0.1
16 0.1
17 0.1
18 0.1
19 0.1
20 0.1
21 0.1
22 0.1
23 0.1
24 0.1
25 0.1
0.0 # default constraint dual value in starting point
0 # number of non-default constraint dual values in starting point
0.0 # default variable bound dual value in starting point
0 # number of non-default variable bound dual values in starting point
0 # number of non-default variable names
0 # number of non-default constraint names
